3264.0 96532.0 
3306.0 96515.0 
3254.0 96983.0 
3309.0 96512.0 
3328.0 95556.0 
3349.0 94999.0 
3346.0 95554.0 
3241.0 99142.0 
3251.0 97636.0 
3319.0 95771.0 
3372.0 94653.0 
3245.0 97652.0 
3404.0 94201.0 
3488.0 94102.0 
3234.0 100376.0 
